peakDumbCharging = 22200; 
Machine = anon_enum(16); 
machineSpeed = [3700,3700,3700,3700,3700,3700,3700,3700,3700,3700,3700,3700,3700,3700,3700,3700]; 
machineLoad = [3700,3700,3700,3700,3700,3700,3700,3700,3700,3700,3700,3700,3700,3700,3700,3700]; 
Car = anon_enum(29); 
demandCar = [4240,5280,11400,22400,16920,8280,7920,2880,6240,12880,8040,18400,14800,5680,1640,7120,6920,7960,3000,17440,5800,9800,10440,2560,22360,6200,3280,480,5120]; 
arrivalCar = [95,86,76,75,71,69,66,65,61,61,61,60,60,60,58,56,54,54,53,51,51,49,45,45,45,43,42,42,41]; 
departureCar = [1,88,81,83,77,72,70,67,65,68,66,71,69,64,60,59,59,57,54,62,54,64,51,47,54,46,44,43,43]; 
